p cnf 229 1046
-1 -33 0
-2 -33 0
1 2 33 0
1 2 -34 0
-1 -2 -34 0
-1 2 34 0
1 -2 34 0
33 -35 0
-3 -35 0
3 -33 35 0
3 -33 -36 0
-3 33 -36 0
3 33 36 0
-3 -33 36 0
35 -37 0
-4 -37 0
4 -35 37 0
4 -35 -38 0
-4 35 -38 0
4 35 38 0
-4 -35 38 0
37 -39 0
-5 -39 0
5 -37 39 0
5 -37 -40 0
-5 37 -40 0
5 37 40 0
-5 -37 40 0
39 -41 0
-6 -41 0
6 -39 41 0
6 -39 -42 0
-6 39 -42 0
6 39 42 0
-6 -39 42 0
41 -43 0
-7 -43 0
7 -41 43 0
7 -41 -44 0
-7 41 -44 0
7 41 44 0
-7 -41 44 0
43 -45 0
-8 -45 0
8 -43 45 0
8 -43 -46 0
-8 43 -46 0
8 43 46 0
-8 -43 46 0
4 -47 0
1 -47 0
-1 -4 47 0
-1 -4 -48 0
1 4 -48 0
1 -4 48 0
-1 4 48 0
-2 -5 49 0
-5 -47 49 0
-2 -47 49 0
2 5 -49 0
5 47 -49 0
2 47 -49 0
5 -49 -50 0
2 -49 -50 0
47 -49 -50 0
-5 49 50 0
-2 49 50 0
-47 49 50 0
-2 -5 -47 50 0
2 5 47 -50 0
-3 -6 51 0
-6 -49 51 0
-3 -49 51 0
3 6 -51 0
6 49 -51 0
3 49 -51 0
6 -51 -52 0
3 -51 -52 0
49 -51 -52 0
-6 51 52 0
-3 51 52 0
-49 51 52 0
-3 -6 -49 52 0
3 6 49 -52 0
-4 -7 53 0
-7 -51 53 0
-4 -51 53 0
4 7 -53 0
7 51 -53 0
4 51 -53 0
7 -53 -54 0
4 -53 -54 0
51 -53 -54 0
-7 53 54 0
-4 53 54 0
-51 53 54 0
-4 -7 -51 54 0
4 7 51 -54 0
-5 -8 55 0
-8 -53 55 0
-5 -53 55 0
5 8 -55 0
8 53 -55 0
5 53 -55 0
8 -55 -56 0
5 -55 -56 0
53 -55 -56 0
-8 55 56 0
-5 55 56 0
-53 55 56 0
-5 -8 -53 56 0
5 8 53 -56 0
6 -57 0
55 -57 0
-6 -55 57 0
-6 -55 -58 0
6 55 -58 0
-6 55 58 0
6 -55 58 0
7 -59 0
57 -59 0
-7 -57 59 0
-7 -57 -60 0
7 57 -60 0
-7 57 60 0
7 -57 60 0
8 -61 0
59 -61 0
-8 -59 61 0
-8 -59 -62 0
8 59 -62 0
-8 59 62 0
8 -59 62 0
-1 -63 0
-2 -63 0
1 2 63 0
1 2 -64 0
-1 -2 -64 0
-1 2 64 0
1 -2 64 0
63 -65 0
-3 -65 0
3 -63 65 0
3 -63 -66 0
-3 63 -66 0
3 63 66 0
-3 -63 66 0
65 -67 0
-48 -67 0
48 -65 67 0
48 -65 -68 0
-48 65 -68 0
48 65 68 0
-48 -65 68 0
67 -69 0
-50 -69 0
50 -67 69 0
50 -67 -70 0
-50 67 -70 0
50 67 70 0
-50 -67 70 0
69 -71 0
-52 -71 0
52 -69 71 0
52 -69 -72 0
-52 69 -72 0
52 69 72 0
-52 -69 72 0
71 -73 0
-54 -73 0
54 -71 73 0
54 -71 -74 0
-54 71 -74 0
54 71 74 0
-54 -71 74 0
73 -75 0
-56 -75 0
56 -73 75 0
56 -73 -76 0
-56 73 -76 0
56 73 76 0
-56 -73 76 0
75 -77 0
-58 -77 0
58 -75 77 0
58 -75 -78 0
-58 75 -78 0
58 75 78 0
-58 -75 78 0
77 -79 0
-60 -79 0
60 -77 79 0
60 -77 -80 0
-60 77 -80 0
60 77 80 0
-60 -77 80 0
79 -81 0
-62 -81 0
62 -79 81 0
62 -79 -82 0
-62 79 -82 0
62 79 82 0
-62 -79 82 0
81 -83 0
-61 -83 0
61 -81 83 0
61 -81 -84 0
-61 81 -84 0
61 81 84 0
-61 -81 84 0
-9 -85 0
-10 -85 0
9 10 85 0
9 10 -86 0
-9 -10 -86 0
-9 10 86 0
9 -10 86 0
85 -87 0
-11 -87 0
11 -85 87 0
11 -85 -88 0
-11 85 -88 0
11 85 88 0
-11 -85 88 0
87 -89 0
-12 -89 0
12 -87 89 0
12 -87 -90 0
-12 87 -90 0
12 87 90 0
-12 -87 90 0
89 -91 0
-13 -91 0
13 -89 91 0
13 -89 -92 0
-13 89 -92 0
13 89 92 0
-13 -89 92 0
91 -93 0
-14 -93 0
14 -91 93 0
14 -91 -94 0
-14 91 -94 0
14 91 94 0
-14 -91 94 0
93 -95 0
-15 -95 0
15 -93 95 0
15 -93 -96 0
-15 93 -96 0
15 93 96 0
-15 -93 96 0
95 -97 0
-16 -97 0
16 -95 97 0
16 -95 -98 0
-16 95 -98 0
16 95 98 0
-16 -95 98 0
10 -99 0
9 -99 0
-9 -10 99 0
-9 -10 -100 0
9 10 -100 0
9 -10 100 0
-9 10 100 0
-10 -11 101 0
-11 -99 101 0
-10 -99 101 0
10 11 -101 0
11 99 -101 0
10 99 -101 0
11 -101 -102 0
10 -101 -102 0
99 -101 -102 0
-11 101 102 0
-10 101 102 0
-99 101 102 0
-10 -11 -99 102 0
10 11 99 -102 0
-11 -12 103 0
-12 -101 103 0
-11 -101 103 0
11 12 -103 0
12 101 -103 0
11 101 -103 0
12 -103 -104 0
11 -103 -104 0
101 -103 -104 0
-12 103 104 0
-11 103 104 0
-101 103 104 0
-11 -12 -101 104 0
11 12 101 -104 0
-12 -13 105 0
-13 -103 105 0
-12 -103 105 0
12 13 -105 0
13 103 -105 0
12 103 -105 0
13 -105 -106 0
12 -105 -106 0
103 -105 -106 0
-13 105 106 0
-12 105 106 0
-103 105 106 0
-12 -13 -103 106 0
12 13 103 -106 0
-13 -14 107 0
-14 -105 107 0
-13 -105 107 0
13 14 -107 0
14 105 -107 0
13 105 -107 0
14 -107 -108 0
13 -107 -108 0
105 -107 -108 0
-14 107 108 0
-13 107 108 0
-105 107 108 0
-13 -14 -105 108 0
13 14 105 -108 0
-14 -15 109 0
-15 -107 109 0
-14 -107 109 0
14 15 -109 0
15 107 -109 0
14 107 -109 0
15 -109 -110 0
14 -109 -110 0
107 -109 -110 0
-15 109 110 0
-14 109 110 0
-107 109 110 0
-14 -15 -107 110 0
14 15 107 -110 0
-15 -16 111 0
-16 -109 111 0
-15 -109 111 0
15 16 -111 0
16 109 -111 0
15 109 -111 0
16 -111 -112 0
15 -111 -112 0
109 -111 -112 0
-16 111 112 0
-15 111 112 0
-109 111 112 0
-15 -16 -109 112 0
15 16 109 -112 0
16 -113 0
111 -113 0
-16 -111 113 0
-16 -111 -114 0
16 111 -114 0
-16 111 114 0
16 -111 114 0
102 -115 0
9 -115 0
-9 -102 115 0
-9 -102 -116 0
9 102 -116 0
9 -102 116 0
-9 102 116 0
-10 -104 117 0
-104 -115 117 0
-10 -115 117 0
10 104 -117 0
104 115 -117 0
10 115 -117 0
104 -117 -118 0
10 -117 -118 0
115 -117 -118 0
-104 117 118 0
-10 117 118 0
-115 117 118 0
-10 -104 -115 118 0
10 104 115 -118 0
-11 -106 119 0
-106 -117 119 0
-11 -117 119 0
11 106 -119 0
106 117 -119 0
11 117 -119 0
106 -119 -120 0
11 -119 -120 0
117 -119 -120 0
-106 119 120 0
-11 119 120 0
-117 119 120 0
-11 -106 -117 120 0
11 106 117 -120 0
-12 -108 121 0
-108 -119 121 0
-12 -119 121 0
12 108 -121 0
108 119 -121 0
12 119 -121 0
108 -121 -122 0
12 -121 -122 0
119 -121 -122 0
-108 121 122 0
-12 121 122 0
-119 121 122 0
-12 -108 -119 122 0
12 108 119 -122 0
-13 -110 123 0
-110 -121 123 0
-13 -121 123 0
13 110 -123 0
110 121 -123 0
13 121 -123 0
110 -123 -124 0
13 -123 -124 0
121 -123 -124 0
-110 123 124 0
-13 123 124 0
-121 123 124 0
-13 -110 -121 124 0
13 110 121 -124 0
-14 -112 125 0
-112 -123 125 0
-14 -123 125 0
14 112 -125 0
112 123 -125 0
14 123 -125 0
112 -125 -126 0
14 -125 -126 0
123 -125 -126 0
-112 125 126 0
-14 125 126 0
-123 125 126 0
-14 -112 -123 126 0
14 112 123 -126 0
-15 -114 127 0
-114 -125 127 0
-15 -125 127 0
15 114 -127 0
114 125 -127 0
15 125 -127 0
114 -127 -128 0
15 -127 -128 0
125 -127 -128 0
-114 127 128 0
-15 127 128 0
-125 127 128 0
-15 -114 -125 128 0
15 114 125 -128 0
-16 -113 129 0
-113 -127 129 0
-16 -127 129 0
16 113 -129 0
113 127 -129 0
16 127 -129 0
113 -129 -130 0
16 -129 -130 0
127 -129 -130 0
-113 129 130 0
-16 129 130 0
-127 129 130 0
-16 -113 -127 130 0
16 113 127 -130 0
118 -131 0
9 -131 0
-9 -118 131 0
-9 -118 -132 0
9 118 -132 0
9 -118 132 0
-9 118 132 0
-10 -120 133 0
-120 -131 133 0
-10 -131 133 0
10 120 -133 0
120 131 -133 0
10 131 -133 0
120 -133 -134 0
10 -133 -134 0
131 -133 -134 0
-120 133 134 0
-10 133 134 0
-131 133 134 0
-10 -120 -131 134 0
10 120 131 -134 0
-11 -122 135 0
-122 -133 135 0
-11 -133 135 0
11 122 -135 0
122 133 -135 0
11 133 -135 0
122 -135 -136 0
11 -135 -136 0
133 -135 -136 0
-122 135 136 0
-11 135 136 0
-133 135 136 0
-11 -122 -133 136 0
11 122 133 -136 0
-12 -124 137 0
-124 -135 137 0
-12 -135 137 0
12 124 -137 0
124 135 -137 0
12 135 -137 0
124 -137 -138 0
12 -137 -138 0
135 -137 -138 0
-124 137 138 0
-12 137 138 0
-135 137 138 0
-12 -124 -135 138 0
12 124 135 -138 0
-13 -126 139 0
-126 -137 139 0
-13 -137 139 0
13 126 -139 0
126 137 -139 0
13 137 -139 0
126 -139 -140 0
13 -139 -140 0
137 -139 -140 0
-126 139 140 0
-13 139 140 0
-137 139 140 0
-13 -126 -137 140 0
13 126 137 -140 0
-14 -128 141 0
-128 -139 141 0
-14 -139 141 0
14 128 -141 0
128 139 -141 0
14 139 -141 0
128 -141 -142 0
14 -141 -142 0
139 -141 -142 0
-128 141 142 0
-14 141 142 0
-139 141 142 0
-14 -128 -139 142 0
14 128 139 -142 0
-15 -130 143 0
-130 -141 143 0
-15 -141 143 0
15 130 -143 0
130 141 -143 0
15 141 -143 0
130 -143 -144 0
15 -143 -144 0
141 -143 -144 0
-130 143 144 0
-15 143 144 0
-141 143 144 0
-15 -130 -141 144 0
15 130 141 -144 0
-16 -129 145 0
-129 -143 145 0
-16 -143 145 0
16 129 -145 0
129 143 -145 0
16 143 -145 0
129 -145 -146 0
16 -145 -146 0
143 -145 -146 0
-129 145 146 0
-16 145 146 0
-143 145 146 0
-16 -129 -143 146 0
16 129 143 -146 0
134 -147 0
9 -147 0
-9 -134 147 0
-9 -134 -148 0
9 134 -148 0
9 -134 148 0
-9 134 148 0
-10 -136 149 0
-136 -147 149 0
-10 -147 149 0
10 136 -149 0
136 147 -149 0
10 147 -149 0
136 -149 -150 0
10 -149 -150 0
147 -149 -150 0
-136 149 150 0
-10 149 150 0
-147 149 150 0
-10 -136 -147 150 0
10 136 147 -150 0
-11 -138 151 0
-138 -149 151 0
-11 -149 151 0
11 138 -151 0
138 149 -151 0
11 149 -151 0
138 -151 -152 0
11 -151 -152 0
149 -151 -152 0
-138 151 152 0
-11 151 152 0
-149 151 152 0
-11 -138 -149 152 0
11 138 149 -152 0
-12 -140 153 0
-140 -151 153 0
-12 -151 153 0
12 140 -153 0
140 151 -153 0
12 151 -153 0
140 -153 -154 0
12 -153 -154 0
151 -153 -154 0
-140 153 154 0
-12 153 154 0
-151 153 154 0
-12 -140 -151 154 0
12 140 151 -154 0
-13 -142 155 0
-142 -153 155 0
-13 -153 155 0
13 142 -155 0
142 153 -155 0
13 153 -155 0
142 -155 -156 0
13 -155 -156 0
153 -155 -156 0
-142 155 156 0
-13 155 156 0
-153 155 156 0
-13 -142 -153 156 0
13 142 153 -156 0
-14 -144 157 0
-144 -155 157 0
-14 -155 157 0
14 144 -157 0
144 155 -157 0
14 155 -157 0
144 -157 -158 0
14 -157 -158 0
155 -157 -158 0
-144 157 158 0
-14 157 158 0
-155 157 158 0
-14 -144 -155 158 0
14 144 155 -158 0
-15 -146 159 0
-146 -157 159 0
-15 -157 159 0
15 146 -159 0
146 157 -159 0
15 157 -159 0
146 -159 -160 0
15 -159 -160 0
157 -159 -160 0
-146 159 160 0
-15 159 160 0
-157 159 160 0
-15 -146 -157 160 0
15 146 157 -160 0
-16 -145 161 0
-145 -159 161 0
-16 -159 161 0
16 145 -161 0
145 159 -161 0
16 159 -161 0
145 -161 -162 0
16 -161 -162 0
159 -161 -162 0
-145 161 162 0
-16 161 162 0
-159 161 162 0
-16 -145 -159 162 0
16 145 159 -162 0
150 -163 0
9 -163 0
-9 -150 163 0
-9 -150 -164 0
9 150 -164 0
9 -150 164 0
-9 150 164 0
-10 -152 165 0
-152 -163 165 0
-10 -163 165 0
10 152 -165 0
152 163 -165 0
10 163 -165 0
152 -165 -166 0
10 -165 -166 0
163 -165 -166 0
-152 165 166 0
-10 165 166 0
-163 165 166 0
-10 -152 -163 166 0
10 152 163 -166 0
-11 -154 167 0
-154 -165 167 0
-11 -165 167 0
11 154 -167 0
154 165 -167 0
11 165 -167 0
154 -167 -168 0
11 -167 -168 0
165 -167 -168 0
-154 167 168 0
-11 167 168 0
-165 167 168 0
-11 -154 -165 168 0
11 154 165 -168 0
-12 -156 169 0
-156 -167 169 0
-12 -167 169 0
12 156 -169 0
156 167 -169 0
12 167 -169 0
156 -169 -170 0
12 -169 -170 0
167 -169 -170 0
-156 169 170 0
-12 169 170 0
-167 169 170 0
-12 -156 -167 170 0
12 156 167 -170 0
-13 -158 171 0
-158 -169 171 0
-13 -169 171 0
13 158 -171 0
158 169 -171 0
13 169 -171 0
158 -171 -172 0
13 -171 -172 0
169 -171 -172 0
-158 171 172 0
-13 171 172 0
-169 171 172 0
-13 -158 -169 172 0
13 158 169 -172 0
-14 -160 173 0
-160 -171 173 0
-14 -171 173 0
14 160 -173 0
160 171 -173 0
14 171 -173 0
160 -173 -174 0
14 -173 -174 0
171 -173 -174 0
-160 173 174 0
-14 173 174 0
-171 173 174 0
-14 -160 -171 174 0
14 160 171 -174 0
-15 -162 175 0
-162 -173 175 0
-15 -173 175 0
15 162 -175 0
162 173 -175 0
15 173 -175 0
162 -175 -176 0
15 -175 -176 0
173 -175 -176 0
-162 175 176 0
-15 175 176 0
-173 175 176 0
-15 -162 -173 176 0
15 162 173 -176 0
-16 -161 177 0
-161 -175 177 0
-16 -175 177 0
16 161 -177 0
161 175 -177 0
16 175 -177 0
161 -177 -178 0
16 -177 -178 0
175 -177 -178 0
-161 177 178 0
-16 177 178 0
-175 177 178 0
-16 -161 -175 178 0
16 161 175 -178 0
-9 -179 0
-100 -179 0
9 100 179 0
9 100 -180 0
-9 -100 -180 0
-9 100 180 0
9 -100 180 0
179 -181 0
-116 -181 0
116 -179 181 0
116 -179 -182 0
-116 179 -182 0
116 179 182 0
-116 -179 182 0
181 -183 0
-132 -183 0
132 -181 183 0
132 -181 -184 0
-132 181 -184 0
132 181 184 0
-132 -181 184 0
183 -185 0
-148 -185 0
148 -183 185 0
148 -183 -186 0
-148 183 -186 0
148 183 186 0
-148 -183 186 0
185 -187 0
-164 -187 0
164 -185 187 0
164 -185 -188 0
-164 185 -188 0
164 185 188 0
-164 -185 188 0
187 -189 0
-166 -189 0
166 -187 189 0
166 -187 -190 0
-166 187 -190 0
166 187 190 0
-166 -187 190 0
189 -191 0
-168 -191 0
168 -189 191 0
168 -189 -192 0
-168 189 -192 0
168 189 192 0
-168 -189 192 0
191 -193 0
-170 -193 0
170 -191 193 0
170 -191 -194 0
-170 191 -194 0
170 191 194 0
-170 -191 194 0
193 -195 0
-172 -195 0
172 -193 195 0
172 -193 -196 0
-172 193 -196 0
172 193 196 0
-172 -193 196 0
195 -197 0
-174 -197 0
174 -195 197 0
174 -195 -198 0
-174 195 -198 0
174 195 198 0
-174 -195 198 0
197 -199 0
-176 -199 0
176 -197 199 0
176 -197 -200 0
-176 197 -200 0
176 197 200 0
-176 -197 200 0
199 -201 0
-178 -201 0
178 -199 201 0
178 -199 -202 0
-178 199 -202 0
178 199 202 0
-178 -199 202 0
201 -203 0
-177 -203 0
177 -201 203 0
177 -201 -204 0
-177 201 -204 0
177 201 204 0
-177 -201 204 0
1 -205 0
116 -205 0
-1 -116 205 0
-1 -116 -206 0
1 116 -206 0
-1 116 206 0
1 -116 206 0
-2 -132 207 0
-2 -205 207 0
-132 -205 207 0
2 132 -207 0
2 205 -207 0
132 205 -207 0
2 -207 -208 0
132 -207 -208 0
205 -207 -208 0
-2 207 208 0
-132 207 208 0
-205 207 208 0
-2 -132 -205 208 0
2 132 205 -208 0
-3 -148 209 0
-3 -207 209 0
-148 -207 209 0
3 148 -209 0
3 207 -209 0
148 207 -209 0
3 -209 -210 0
148 -209 -210 0
207 -209 -210 0
-3 209 210 0
-148 209 210 0
-207 209 210 0
-3 -148 -207 210 0
3 148 207 -210 0
-48 -164 211 0
-48 -209 211 0
-164 -209 211 0
48 164 -211 0
48 209 -211 0
164 209 -211 0
48 -211 -212 0
164 -211 -212 0
209 -211 -212 0
-48 211 212 0
-164 211 212 0
-209 211 212 0
-48 -164 -209 212 0
48 164 209 -212 0
-50 -166 213 0
-50 -211 213 0
-166 -211 213 0
50 166 -213 0
50 211 -213 0
166 211 -213 0
50 -213 -214 0
166 -213 -214 0
211 -213 -214 0
-50 213 214 0
-166 213 214 0
-211 213 214 0
-50 -166 -211 214 0
50 166 211 -214 0
-52 -168 215 0
-52 -213 215 0
-168 -213 215 0
52 168 -215 0
52 213 -215 0
168 213 -215 0
52 -215 -216 0
168 -215 -216 0
213 -215 -216 0
-52 215 216 0
-168 215 216 0
-213 215 216 0
-52 -168 -213 216 0
52 168 213 -216 0
-54 -170 217 0
-54 -215 217 0
-170 -215 217 0
54 170 -217 0
54 215 -217 0
170 215 -217 0
54 -217 -218 0
170 -217 -218 0
215 -217 -218 0
-54 217 218 0
-170 217 218 0
-215 217 218 0
-54 -170 -215 218 0
54 170 215 -218 0
-56 -172 219 0
-56 -217 219 0
-172 -217 219 0
56 172 -219 0
56 217 -219 0
172 217 -219 0
56 -219 -220 0
172 -219 -220 0
217 -219 -220 0
-56 219 220 0
-172 219 220 0
-217 219 220 0
-56 -172 -217 220 0
56 172 217 -220 0
-58 -174 221 0
-58 -219 221 0
-174 -219 221 0
58 174 -221 0
58 219 -221 0
174 219 -221 0
58 -221 -222 0
174 -221 -222 0
219 -221 -222 0
-58 221 222 0
-174 221 222 0
-219 221 222 0
-58 -174 -219 222 0
58 174 219 -222 0
-60 -176 223 0
-60 -221 223 0
-176 -221 223 0
60 176 -223 0
60 221 -223 0
176 221 -223 0
60 -223 -224 0
176 -223 -224 0
221 -223 -224 0
-60 223 224 0
-176 223 224 0
-221 223 224 0
-60 -176 -221 224 0
60 176 221 -224 0
-62 -178 225 0
-62 -223 225 0
-178 -223 225 0
62 178 -225 0
62 223 -225 0
178 223 -225 0
62 -225 -226 0
178 -225 -226 0
223 -225 -226 0
-62 225 226 0
-178 225 226 0
-223 225 226 0
-62 -178 -223 226 0
62 178 223 -226 0
-61 -177 227 0
-61 -225 227 0
-177 -225 227 0
61 177 -227 0
61 225 -227 0
177 225 -227 0
61 -227 -228 0
177 -227 -228 0
225 -227 -228 0
-61 227 228 0
-177 227 228 0
-225 227 228 0
-61 -177 -225 228 0
61 177 225 -228 0
9 -229 0
100 -229 0
206 -229 0
-208 -229 0
-210 -229 0
-212 -229 0
214 -229 0
-216 -229 0
-218 -229 0
-220 -229 0
-222 -229 0
-224 -229 0
-226 -229 0
-227 -229 0
-228 -229 0
-9 -100 -206 208 210 212 -214 216 218 220 222 224 226 227 228 229 0
229 0
c main::$tmp::return_value_nondet_char!0@1#1 17 18 19 20 21 22 23 24
c symex::nondet1 9 10 11 12 13 14 15 16
c symex::nondet0 1 2 3 4 5 6 7 8
c main::$tmp::return_value_nondet_char$0!0@1#2 9 10 11 12 13 14 15 16
c __CPROVER_rounding_mode!0#1 FALSE FALSE FALSE FALSE FALSE FALSE FALSE FALSE FALSE FALSE FALSE FALSE FALSE FALSE FALSE FALSE FALSE FALSE FALSE FALSE FALSE FALSE FALSE FALSE FALSE FALSE FALSE FALSE FALSE FALSE FALSE FALSE
c main::$tmp::return_value_nondet_char$0!0@1#1 25 26 27 28 29 30 31 32
c __CPROVER_memory_leak#1 FALSE FALSE FALSE FALSE FALSE FALSE FALSE FALSE FALSE FALSE FALSE FALSE FALSE FALSE FALSE FALSE FALSE FALSE FALSE FALSE FALSE FALSE FALSE FALSE FALSE FALSE FALSE FALSE FALSE FALSE FALSE FALSE FALSE FALSE FALSE FALSE FALSE FALSE FALSE FALSE FALSE FALSE FALSE FALSE FALSE FALSE FALSE FALSE FALSE FALSE FALSE FALSE FALSE FALSE FALSE FALSE FALSE FALSE FALSE FALSE FALSE FALSE FALSE FALSE
c __CPROVER_max_malloc_size#1 FALSE FALSE FALSE FALSE FALSE FALSE FALSE FALSE FALSE FALSE FALSE FALSE FALSE FALSE FALSE FALSE FALSE FALSE FALSE FALSE FALSE FALSE FALSE FALSE FALSE FALSE FALSE FALSE FALSE FALSE FALSE FALSE FALSE FALSE FALSE FALSE FALSE FALSE FALSE FALSE FALSE FALSE FALSE FALSE FALSE FALSE FALSE FALSE FALSE FALSE FALSE FALSE FALSE FALSE FALSE TRUE FALSE FALSE FALSE FALSE FALSE FALSE FALSE FALSE
c __CPROVER_deallocated#1 FALSE FALSE FALSE FALSE FALSE FALSE FALSE FALSE FALSE FALSE FALSE FALSE FALSE FALSE FALSE FALSE FALSE FALSE FALSE FALSE FALSE FALSE FALSE FALSE FALSE FALSE FALSE FALSE FALSE FALSE FALSE FALSE FALSE FALSE FALSE FALSE FALSE FALSE FALSE FALSE FALSE FALSE FALSE FALSE FALSE FALSE FALSE FALSE FALSE FALSE FALSE FALSE FALSE FALSE FALSE FALSE FALSE FALSE FALSE FALSE FALSE FALSE FALSE FALSE
c main::$tmp::return_value_nondet_char!0@1#2 1 2 3 4 5 6 7 8
c __CPROVER_dead_object#1 FALSE FALSE FALSE FALSE FALSE FALSE FALSE FALSE FALSE FALSE FALSE FALSE FALSE FALSE FALSE FALSE FALSE FALSE FALSE FALSE FALSE FALSE FALSE FALSE FALSE FALSE FALSE FALSE FALSE FALSE FALSE FALSE FALSE FALSE FALSE FALSE FALSE FALSE FALSE FALSE FALSE FALSE FALSE FALSE FALSE FALSE FALSE FALSE FALSE FALSE FALSE FALSE FALSE FALSE FALSE FALSE FALSE FALSE FALSE FALSE FALSE FALSE FALSE FALSE
